sat
(
  (define-fun C4_VM7 () Int
    0)
  (define-fun MemProv3 () Int
    6750)
  (define-fun MemProv2 () Int
    6750)
  (define-fun ProcProv6 () Int
    1801)
  (define-fun C4_VM8 () Int
    0)
  (define-fun StorageProv4 () Int
    69000)
  (define-fun C2_VM6 () Int
    0)
  (define-fun C1_VM6 () Int
    0)
  (define-fun MemProv8 () Int
    1350)
  (define-fun PriceProv1 () Int
    0)
  (define-fun C3_VM3 () Int
    0)
  (define-fun C2_VM1 () Int
    0)
  (define-fun C3_VM6 () Int
    0)
  (define-fun C2_VM2 () Int
    0)
  (define-fun C3_VM2 () Int
    0)
  (define-fun VM8Type () Int
    1)
  (define-fun StorageProv5 () Int
    69000)
  (define-fun VM1Type () Int
    0)
  (define-fun C2_VM8 () Int
    1)
  (define-fun C1_VM1 () Int
    0)
  (define-fun C2_VM7 () Int
    1)
  (define-fun C4_VM4 () Int
    0)
  (define-fun C5_VM5 () Int
    0)
  (define-fun C4_VM3 () Int
    0)
  (define-fun C1_VM7 () Int
    1)
  (define-fun StorageProv3 () Int
    141000)
  (define-fun C5_VM4 () Int
    0)
  (define-fun StorageProv6 () Int
    42000)
  (define-fun C5_VM3 () Int
    1)
  (define-fun C5_VM1 () Int
    0)
  (define-fun C3_VM5 () Int
    0)
  (define-fun C1_VM8 () Int
    1)
  (define-fun C4_VM2 () Int
    0)
  (define-fun C2_VM3 () Int
    0)
  (define-fun C1_VM4 () Int
    0)
  (define-fun PriceProv8 () Int
    120)
  (define-fun ProcProv2 () Int
    3600)
  (define-fun ProcProv3 () Int
    3600)
  (define-fun C4_VM1 () Int
    0)
  (define-fun MemProv4 () Int
    3150)
  (define-fun C2_VM5 () Int
    0)
  (define-fun C1_VM5 () Int
    0)
  (define-fun StorageProv2 () Int
    141000)
  (define-fun ProcProv8 () Int
    900)
  (define-fun StorageProv1 () Int
    69000)
  (define-fun C5_VM2 () Int
    1)
  (define-fun C2_VM4 () Int
    0)
  (define-fun C1_VM3 () Int
    0)
  (define-fun ProcProv7 () Int
    900)
  (define-fun VM5Type () Int
    0)
  (define-fun ProcProv4 () Int
    1800)
  (define-fun MemProv1 () Int
    3150)
  (define-fun C5_VM7 () Int
    0)
  (define-fun PriceProv7 () Int
    120)
  (define-fun StorageProv7 () Int
    42000)
  (define-fun C5_VM8 () Int
    0)
  (define-fun MemProv5 () Int
    3150)
  (define-fun C3_VM1 () Int
    0)
  (define-fun VM6Type () Int
    0)
  (define-fun VM3Type () Int
    10)
  (define-fun VM2Type () Int
    10)
  (define-fun C3_VM4 () Int
    1)
  (define-fun C4_VM6 () Int
    0)
  (define-fun StorageProv8 () Int
    42000)
  (define-fun PriceProv3 () Int
    480)
  (define-fun MemProv7 () Int
    1350)
  (define-fun PriceProv6 () Int
    0)
  (define-fun PriceProv5 () Int
    0)
  (define-fun VM4Type () Int
    7)
  (define-fun C5_VM6 () Int
    0)
  (define-fun PriceProv4 () Int
    240)
  (define-fun ProcProv5 () Int
    1800)
  (define-fun VM7Type () Int
    1)
  (define-fun ProcProv1 () Int
    1800)
  (define-fun C3_VM8 () Int
    0)
  (define-fun C1_VM2 () Int
    1)
  (define-fun MemProv6 () Int
    1351)
  (define-fun C4_VM5 () Int
    0)
  (define-fun PriceProv2 () Int
    480)
  (define-fun C3_VM7 () Int
    0)
)
(objectives
 ( 17)
 ((+ 0
   PriceProv1
   PriceProv2
   PriceProv3
   PriceProv4
   PriceProv5
   PriceProv6
   PriceProv7
   PriceProv8) 1440)
)
(:added-eqs                   113427
 :arith-eq-adapter            28217
 :arith-bound-propagations-lp 560
 :arith-conflicts             36
 :arith-diseq                 92494
 :arith-fixed-eqs             1651
 :arith-lower                 140665
 :arith-make-feasible         21182
 :arith-max-columns           145
 :arith-max-rows              26
 :arith-upper                 75071
 :binary-propagations         488246
 :conflicts                   2140
 :decisions                   67882
 :del-clause                  22013
 :final-checks                71
 :max-memory                  43.52
 :maxsat-cores                2
 :memory                      43.34
 :minimized-lits              12771
 :mk-bool-var                 56469
 :mk-clause                   23185
 :mk-clause-binary            3807
 :num-allocs                  84880318
 :num-checks                  76
 :pb-conflicts                1322
 :pb-predicates               407
 :pb-propagations             3151
 :pb-resolves                 1245
 :propagations                669332
 :restarts                    10
 :rlimit-count                5106194
 :time                        0.25
 :total-time                  0.26)
